language Essence 1.3

letting codeWordLength be 36
letting dist be
        function((1, 1) --> 0, (1, 2) --> 9, (1, 3) --> 17, (1, 4) --> 12, (1, 5) --> 13, (1, 6) --> 14, (1, 7) --> 14,
                 (1, 8) --> 5, (1, 9) --> 10, (1, 10) --> 16, (1, 11) --> 14, (1, 12) --> 2, (1, 13) --> 14,
                 (1, 14) --> 7, (1, 15) --> 15, (1, 16) --> 7, (1, 17) --> 5, (1, 18) --> 3, (1, 19) --> 4,
                 (1, 20) --> 8, (1, 21) --> 15, (2, 1) --> 9, (2, 2) --> 0, (2, 3) --> 10, (2, 4) --> 9, (2, 5) --> 13,
                 (2, 6) --> 6, (2, 7) --> 12, (2, 8) --> 11, (2, 9) --> 8, (2, 10) --> 11, (2, 11) --> 1, (2, 12) --> 1,
                 (2, 13) --> 2, (2, 14) --> 5, (2, 15) --> 3, (2, 16) --> 15, (2, 17) --> 15, (2, 18) --> 0,
                 (2, 19) --> 0, (2, 20) --> 10, (2, 21) --> 10, (3, 1) --> 17, (3, 2) --> 10, (3, 3) --> 0,
                 (3, 4) --> 0, (3, 5) --> 0, (3, 6) --> 12, (3, 7) --> 2, (3, 8) --> 7, (3, 9) --> 8, (3, 10) --> 2,
                 (3, 11) --> 0, (3, 12) --> 13, (3, 13) --> 10, (3, 14) --> 13, (3, 15) --> 1, (3, 16) --> 3,
                 (3, 17) --> 11, (3, 18) --> 5, (3, 19) --> 3, (3, 20) --> 4, (3, 21) --> 13, (4, 1) --> 12,
                 (4, 2) --> 9, (4, 3) --> 0, (4, 4) --> 0, (4, 5) --> 17, (4, 6) --> 0, (4, 7) --> 15, (4, 8) --> 16,
                 (4, 9) --> 0, (4, 10) --> 17, (4, 11) --> 6, (4, 12) --> 17, (4, 13) --> 13, (4, 14) --> 17,
                 (4, 15) --> 3, (4, 16) --> 10, (4, 17) --> 6, (4, 18) --> 12, (4, 19) --> 15, (4, 20) --> 8,
                 (4, 21) --> 8, (5, 1) --> 13, (5, 2) --> 13, (5, 3) --> 0, (5, 4) --> 17, (5, 5) --> 0, (5, 6) --> 8,
                 (5, 7) --> 13, (5, 8) --> 3, (5, 9) --> 6, (5, 10) --> 2, (5, 11) --> 1, (5, 12) --> 3, (5, 13) --> 13,
                 (5, 14) --> 11, (5, 15) --> 8, (5, 16) --> 12, (5, 17) --> 16, (5, 18) --> 12, (5, 19) --> 13,
                 (5, 20) --> 12, (5, 21) --> 3, (6, 1) --> 14, (6, 2) --> 6, (6, 3) --> 12, (6, 4) --> 0, (6, 5) --> 8,
                 (6, 6) --> 0, (6, 7) --> 3, (6, 8) --> 5, (6, 9) --> 9, (6, 10) --> 3, (6, 11) --> 14, (6, 12) --> 17,
                 (6, 13) --> 14, (6, 14) --> 1, (6, 15) --> 11, (6, 16) --> 16, (6, 17) --> 13, (6, 18) --> 3,
                 (6, 19) --> 1, (6, 20) --> 8, (6, 21) --> 6, (7, 1) --> 14, (7, 2) --> 12, (7, 3) --> 2, (7, 4) --> 15,
                 (7, 5) --> 13, (7, 6) --> 3, (7, 7) --> 0, (7, 8) --> 8, (7, 9) --> 14, (7, 10) --> 9, (7, 11) --> 1,
                 (7, 12) --> 4, (7, 13) --> 17, (7, 14) --> 10, (7, 15) --> 13, (7, 16) --> 1, (7, 17) --> 17,
                 (7, 18) --> 2, (7, 19) --> 9, (7, 20) --> 5, (7, 21) --> 3, (8, 1) --> 5, (8, 2) --> 11, (8, 3) --> 7,
                 (8, 4) --> 16, (8, 5) --> 3, (8, 6) --> 5, (8, 7) --> 8, (8, 8) --> 0, (8, 9) --> 7, (8, 10) --> 6,
                 (8, 11) --> 6, (8, 12) --> 2, (8, 13) --> 11, (8, 14) --> 17, (8, 15) --> 15, (8, 16) --> 15,
                 (8, 17) --> 9, (8, 18) --> 16, (8, 19) --> 2, (8, 20) --> 17, (8, 21) --> 6, (9, 1) --> 10,
                 (9, 2) --> 8, (9, 3) --> 8, (9, 4) --> 0, (9, 5) --> 6, (9, 6) --> 9, (9, 7) --> 14, (9, 8) --> 7,
                 (9, 9) --> 0, (9, 10) --> 13, (9, 11) --> 15, (9, 12) --> 7, (9, 13) --> 16, (9, 14) --> 2,
                 (9, 15) --> 0, (9, 16) --> 6, (9, 17) --> 5, (9, 18) --> 0, (9, 19) --> 1, (9, 20) --> 10,
                 (9, 21) --> 12, (10, 1) --> 16, (10, 2) --> 11, (10, 3) --> 2, (10, 4) --> 17, (10, 5) --> 2,
                 (10, 6) --> 3, (10, 7) --> 9, (10, 8) --> 6, (10, 9) --> 13, (10, 10) --> 0, (10, 11) --> 3,
                 (10, 12) --> 11, (10, 13) --> 0, (10, 14) --> 13, (10, 15) --> 7, (10, 16) --> 13, (10, 17) --> 11,
                 (10, 18) --> 1, (10, 19) --> 4, (10, 20) --> 10, (10, 21) --> 3, (11, 1) --> 14, (11, 2) --> 1,
                 (11, 3) --> 0, (11, 4) --> 6, (11, 5) --> 1, (11, 6) --> 14, (11, 7) --> 1, (11, 8) --> 6,
                 (11, 9) --> 15, (11, 10) --> 3, (11, 11) --> 0, (11, 12) --> 4, (11, 13) --> 1, (11, 14) --> 2,
                 (11, 15) --> 15, (11, 16) --> 6, (11, 17) --> 6, (11, 18) --> 3, (11, 19) --> 9, (11, 20) --> 8,
                 (11, 21) --> 15, (12, 1) --> 2, (12, 2) --> 1, (12, 3) --> 13, (12, 4) --> 17, (12, 5) --> 3,
                 (12, 6) --> 17, (12, 7) --> 4, (12, 8) --> 2, (12, 9) --> 7, (12, 10) --> 11, (12, 11) --> 4,
                 (12, 12) --> 0, (12, 13) --> 13, (12, 14) --> 16, (12, 15) --> 15, (12, 16) --> 0, (12, 17) --> 12,
                 (12, 18) --> 14, (12, 19) --> 4, (12, 20) --> 11, (12, 21) --> 3, (13, 1) --> 14, (13, 2) --> 2,
                 (13, 3) --> 10, (13, 4) --> 13, (13, 5) --> 13, (13, 6) --> 14, (13, 7) --> 17, (13, 8) --> 11,
                 (13, 9) --> 16, (13, 10) --> 0, (13, 11) --> 1, (13, 12) --> 13, (13, 13) --> 0, (13, 14) --> 8,
                 (13, 15) --> 6, (13, 16) --> 10, (13, 17) --> 16, (13, 18) --> 10, (13, 19) --> 5, (13, 20) --> 9,
                 (13, 21) --> 14, (14, 1) --> 7, (14, 2) --> 5, (14, 3) --> 13, (14, 4) --> 17, (14, 5) --> 11,
                 (14, 6) --> 1, (14, 7) --> 10, (14, 8) --> 17, (14, 9) --> 2, (14, 10) --> 13, (14, 11) --> 2,
                 (14, 12) --> 16, (14, 13) --> 8, (14, 14) --> 0, (14, 15) --> 14, (14, 16) --> 9, (14, 17) --> 16,
                 (14, 18) --> 5, (14, 19) --> 2, (14, 20) --> 17, (14, 21) --> 4, (15, 1) --> 15, (15, 2) --> 3,
                 (15, 3) --> 1, (15, 4) --> 3, (15, 5) --> 8, (15, 6) --> 11, (15, 7) --> 13, (15, 8) --> 15,
                 (15, 9) --> 0, (15, 10) --> 7, (15, 11) --> 15, (15, 12) --> 15, (15, 13) --> 6, (15, 14) --> 14,
                 (15, 15) --> 0, (15, 16) --> 5, (15, 17) --> 4, (15, 18) --> 1, (15, 19) --> 11, (15, 20) --> 10,
                 (15, 21) --> 9, (16, 1) --> 7, (16, 2) --> 15, (16, 3) --> 3, (16, 4) --> 10, (16, 5) --> 12,
                 (16, 6) --> 16, (16, 7) --> 1, (16, 8) --> 15, (16, 9) --> 6, (16, 10) --> 13, (16, 11) --> 6,
                 (16, 12) --> 0, (16, 13) --> 10, (16, 14) --> 9, (16, 15) --> 5, (16, 16) --> 0, (16, 17) --> 6,
                 (16, 18) --> 11, (16, 19) --> 3, (16, 20) --> 10, (16, 21) --> 12, (17, 1) --> 5, (17, 2) --> 15,
                 (17, 3) --> 11, (17, 4) --> 6, (17, 5) --> 16, (17, 6) --> 13, (17, 7) --> 17, (17, 8) --> 9,
                 (17, 9) --> 5, (17, 10) --> 11, (17, 11) --> 6, (17, 12) --> 12, (17, 13) --> 16, (17, 14) --> 16,
                 (17, 15) --> 4, (17, 16) --> 6, (17, 17) --> 0, (17, 18) --> 16, (17, 19) --> 5, (17, 20) --> 17,
                 (17, 21) --> 8, (18, 1) --> 3, (18, 2) --> 0, (18, 3) --> 5, (18, 4) --> 12, (18, 5) --> 12,
                 (18, 6) --> 3, (18, 7) --> 2, (18, 8) --> 16, (18, 9) --> 0, (18, 10) --> 1, (18, 11) --> 3,
                 (18, 12) --> 14, (18, 13) --> 10, (18, 14) --> 5, (18, 15) --> 1, (18, 16) --> 11, (18, 17) --> 16,
                 (18, 18) --> 0, (18, 19) --> 12, (18, 20) --> 17, (18, 21) --> 5, (19, 1) --> 4, (19, 2) --> 0,
                 (19, 3) --> 3, (19, 4) --> 15, (19, 5) --> 13, (19, 6) --> 1, (19, 7) --> 9, (19, 8) --> 2,
                 (19, 9) --> 1, (19, 10) --> 4, (19, 11) --> 9, (19, 12) --> 4, (19, 13) --> 5, (19, 14) --> 2,
                 (19, 15) --> 11, (19, 16) --> 3, (19, 17) --> 5, (19, 18) --> 12, (19, 19) --> 0, (19, 20) --> 14,
                 (19, 21) --> 14, (20, 1) --> 8, (20, 2) --> 10, (20, 3) --> 4, (20, 4) --> 8, (20, 5) --> 12,
                 (20, 6) --> 8, (20, 7) --> 5, (20, 8) --> 17, (20, 9) --> 10, (20, 10) --> 10, (20, 11) --> 8,
                 (20, 12) --> 11, (20, 13) --> 9, (20, 14) --> 17, (20, 15) --> 10, (20, 16) --> 10, (20, 17) --> 17,
                 (20, 18) --> 17, (20, 19) --> 14, (20, 20) --> 0, (20, 21) --> 4, (21, 1) --> 15, (21, 2) --> 10,
                 (21, 3) --> 13, (21, 4) --> 8, (21, 5) --> 3, (21, 6) --> 6, (21, 7) --> 3, (21, 8) --> 6,
                 (21, 9) --> 12, (21, 10) --> 3, (21, 11) --> 15, (21, 12) --> 3, (21, 13) --> 14, (21, 14) --> 4,
                 (21, 15) --> 9, (21, 16) --> 12, (21, 17) --> 8, (21, 18) --> 5, (21, 19) --> 14, (21, 20) --> 4,
                 (21, 21) --> 0)
letting maxDist be 22
letting minDist be 18
letting nbCharacter be 21
letting numOfCodeWords be 21
